(set-logic ALL)
(declare-fun var0 () String)
(assert (str.in_re var0 (re.++ (re.+ (re.union (str.to_re "0") (str.to_re "111"))) (re.++ (re.union (re.union (str.to_re "222") (str.to_re "333")) (re.union (str.to_re "4") (str.to_re "5"))) (re.++ (re.* (re.+ (str.to_re "6"))) (re.++ (re.union (re.union (str.to_re "7") (str.to_re "88")) (re.union (str.to_re "999") (str.to_re "a"))) (re.++ (re.+ (re.+ (str.to_re "b"))) (re.++ (re.* (re.* (str.to_re "c"))) (re.++ (re.union (re.+ (str.to_re "dd")) (re.+ (str.to_re "eee"))) (re.++ (re.* (re.union (str.to_re "f") (str.to_re "ggg"))) (re.++ (re.* (re.union (str.to_re "hhh") (str.to_re "ii"))) (re.++ (re.* (re.+ (str.to_re "jj"))) (re.++ (re.union (re.* (str.to_re "k")) (re.* (str.to_re "lll"))) (re.++ (re.* (re.* (str.to_re "mm"))) (re.++ (re.union (re.+ (str.to_re "n")) (re.+ (str.to_re "oo"))) (re.++ (re.+ (re.* (str.to_re "ppp"))) (re.++ (re.+ (re.union (str.to_re "q") (str.to_re "rr"))) (re.++ (re.* (re.+ (str.to_re "ss"))) (re.++ (re.union (re.* (str.to_re "t")) (re.* (str.to_re "uu"))) (re.++ (re.* (re.* (str.to_re "vv"))) (re.++ (re.+ (re.* (str.to_re "w"))) (re.++ (re.+ (re.* (str.to_re "x"))) (re.++ (re.union (re.+ (str.to_re "yyy")) (re.+ (str.to_re "z"))) (re.++ (re.+ (re.union (str.to_re "A") (str.to_re "BB"))) (re.++ (re.union (re.union (str.to_re "CCC") (str.to_re "DD")) (re.union (str.to_re "EEE") (str.to_re "FFF"))) (re.++ (re.+ (re.* (str.to_re "GG"))) (re.++ (re.* (re.+ (str.to_re "HH"))) (re.++ (re.union (re.* (str.to_re "I")) (re.* (str.to_re "JJJ"))) (re.++ (re.union (re.+ (str.to_re "KK")) (re.+ (str.to_re "L"))) (re.++ (re.+ (re.+ (str.to_re "MMM"))) (re.++ (re.+ (re.+ (str.to_re "NN"))) (re.++ (re.union (re.* (str.to_re "OOO")) (re.* (str.to_re "P"))) (re.++ (re.* (re.union (str.to_re "Q") (str.to_re "RRR"))) (re.++ (re.union (re.+ (str.to_re "S")) (re.+ (str.to_re "TTT"))) (re.++ (re.union (re.+ (str.to_re "UUU")) (re.+ (str.to_re "VV"))) (re.++ (re.+ (re.* (str.to_re "W"))) (re.++ (re.* (re.* (str.to_re "X"))) (re.++ (re.+ (re.union (str.to_re "Y") (str.to_re "ZZZ"))) (re.++ (re.* (re.+ (str.to_re "!!"))) (re.++ (re.union (re.+ (str.to_re """""")) (re.+ (str.to_re "#"))) (re.++ (re.+ (re.* (str.to_re "$$"))) (re.++ (re.union (re.+ (str.to_re "%%%")) (re.+ (str.to_re "&&&"))) (re.++ (re.* (re.+ (str.to_re "'''"))) (re.++ (re.* (re.* (str.to_re "("))) (re.++ (re.+ (re.+ (str.to_re ")"))) (re.++ (re.union (re.+ (str.to_re "**")) (re.+ (str.to_re "+++"))) (re.* (re.* (str.to_re ",,")))))))))))))))))))))))))))))))))))))))))))))))))
(check-sat)